decision_x1=[0,4];
decision_x2=[0,4];
decision_x3=[0,4];
decision_x4=[0,4];
decision_x5=[0,4];
decision_x6=[0,4];
decision_x7=[0,4];
decision_x8=[0,4];
decision_x9=[0,4];
decision_x10=[0,4];
decision_x11=[0,4];
decision_x12=[0,4];
decision_x13=[0,4];
decision_x14=[0,4];
decision_x15=[0,4];
random_y1=[0,4];
random_y2=[0,4];
random_y3=[0,4];
constraint_x3_x1=[
0,1,8.6|
0,2,6.1|
0,3,4.1|
0,4,6.8|
1,0,9.5|
1,2,0.081|
1,3,2.3|
1,4,8.3|
2,0,4|
2,1,8.6|
2,3,0.93|
2,4,8.5|
3,0,4.5|
3,1,0.66|
3,2,2.2|
3,4,7.3|
4,0,5.2|
4,1,2.3|
4,2,5.2|
4,3,4.1|
];
constraint_x4_x1=[
0,1,1.9|
0,2,2.1|
0,3,2.8|
0,4,6.4|
1,0,6.4|
1,2,1.8|
1,3,3.3|
1,4,5.9|
2,0,4|
2,1,0.77|
2,3,9|
2,4,3.4|
3,0,9.8|
3,1,8.5|
3,2,7.7|
3,4,8.4|
4,0,3.1|
4,1,0.34|
4,2,2.3|
4,3,1.7|
];
constraint_x4_x2=[
0,1,5.9|
0,2,0.45|
0,3,6.7|
0,4,6.2|
1,0,0.38|
1,2,0.1|
1,3,8.8|
1,4,9.2|
2,0,7.1|
2,1,9.2|
2,3,4.3|
2,4,7.8|
3,0,0.6|
3,1,3.4|
3,2,3.6|
3,4,7.8|
4,0,6.7|
4,1,2.1|
4,2,4.3|
4,3,5.7|
];
constraint_x4_x3=[
0,1,9.6|
0,2,0.31|
0,3,9.7|
0,4,3|
1,0,7.4|
1,2,5.2|
1,3,6.2|
1,4,5.8|
2,0,6.2|
2,1,9|
2,3,6.4|
2,4,5.9|
3,0,0.77|
3,1,6.1|
3,2,8.1|
3,4,7|
4,0,0.9|
4,1,1.7|
4,2,0.044|
4,3,0.97|
];
constraint_x5_x1=[
0,1,8|
0,2,2.2|
0,3,7.6|
0,4,2.7|
1,0,2.1|
1,2,9.5|
1,3,7.6|
1,4,6.3|
2,0,1.6|
2,1,8.8|
2,3,9.1|
2,4,6.5|
3,0,8.8|
3,1,3.8|
3,2,0.15|
3,4,0.3|
4,0,10|
4,1,5.2|
4,2,7.3|
4,3,4.9|
];
constraint_x6_x2=[
0,1,8.7|
0,2,1.8|
0,3,7.6|
0,4,8|
1,0,7.3|
1,2,8.8|
1,3,4.2|
1,4,4.7|
2,0,0.49|
2,1,2.3|
2,3,6.9|
2,4,7.3|
3,0,7.4|
3,1,4.9|
3,2,3.6|
3,4,7.3|
4,0,8.9|
4,1,7.1|
4,2,0.71|
4,3,6.2|
];
constraint_x6_x3=[
0,1,0.73|
0,2,4.9|
0,3,2|
0,4,1.5|
1,0,5|
1,2,0.62|
1,3,1.9|
1,4,2.7|
2,0,4.3|
2,1,4|
2,3,3.1|
2,4,8.6|
3,0,2.5|
3,1,3.7|
3,2,9.7|
3,4,4.9|
4,0,3.3|
4,1,0.085|
4,2,5.9|
4,3,2.8|
];
constraint_x6_x5=[
0,1,5.3|
0,2,3|
0,3,7.2|
0,4,5.1|
1,0,5.2|
1,2,5.2|
1,3,2.7|
1,4,7.3|
2,0,5.8|
2,1,3.7|
2,3,6.9|
2,4,7.8|
3,0,9.2|
3,1,4.8|
3,2,6.1|
3,4,1.1|
4,0,6.2|
4,1,4|
4,2,4.9|
4,3,7.8|
];
constraint_x7_x4=[
0,1,0.86|
0,2,1.5|
0,3,9.1|
0,4,5|
1,0,5.1|
1,2,9.7|
1,3,4.9|
1,4,7.2|
2,0,1.1|
2,1,5|
2,3,3.4|
2,4,5.7|
3,0,1.2|
3,1,9|
3,2,4.6|
3,4,5.8|
4,0,5|
4,1,1.2|
4,2,2.9|
4,3,3.6|
];
constraint_x7_x6=[
0,1,8.8|
0,2,8.6|
0,3,2.6|
0,4,5.1|
1,0,7.6|
1,2,8.7|
1,3,1.5|
1,4,4.5|
2,0,6.8|
2,1,8.5|
2,3,8.3|
2,4,4|
3,0,1.1|
3,1,1.1|
3,2,5.4|
3,4,3.5|
4,0,3.1|
4,1,3.6|
4,2,2.7|
4,3,4.7|
];
constraint_x8_x1=[
0,1,8.1|
0,2,8.1|
0,3,4.2|
0,4,0.6|
1,0,5.3|
1,2,3.3|
1,3,1.4|
1,4,6|
2,0,4.4|
2,1,5.1|
2,3,6.9|
2,4,5|
3,0,1.2|
3,1,1.9|
3,2,7.4|
3,4,7.9|
4,0,6.8|
4,1,6.9|
4,2,1.3|
4,3,2.3|
];
constraint_x8_x2=[
0,1,1.7|
0,2,4|
0,3,4.8|
0,4,1.2|
1,0,7.2|
1,2,6|
1,3,0.42|
1,4,9.6|
2,0,5.4|
2,1,0.81|
2,3,3.5|
2,4,7.1|
3,0,4.8|
3,1,6.4|
3,2,4.3|
3,4,6|
4,0,7.4|
4,1,8.7|
4,2,5.7|
4,3,3.2|
];
constraint_x8_x3=[
0,1,7.5|
0,2,0.98|
0,3,6.5|
0,4,6.9|
1,0,4.3|
1,2,0.087|
1,3,0.29|
1,4,8.4|
2,0,1.5|
2,1,7|
2,3,3|
2,4,1.4|
3,0,0.39|
3,1,7.1|
3,2,2.9|
3,4,2.7|
4,0,9.7|
4,1,9.6|
4,2,0.54|
4,3,0.14|
];
constraint_x8_x4=[
0,1,8.9|
0,2,5.8|
0,3,7|
0,4,6.4|
1,0,8.6|
1,2,9.5|
1,3,2|
1,4,2|
2,0,4.8|
2,1,2.3|
2,3,4.4|
2,4,0.77|
3,0,7.4|
3,1,7.7|
3,2,9.6|
3,4,8.6|
4,0,3.4|
4,1,3.3|
4,2,0.77|
4,3,2.1|
];
constraint_x8_x5=[
0,1,6.9|
0,2,9.6|
0,3,1.7|
0,4,4.5|
1,0,2.9|
1,2,8.5|
1,3,2.7|
1,4,4.7|
2,0,3.7|
2,1,2|
2,3,3.7|
2,4,3.5|
3,0,4.7|
3,1,5|
3,2,5.5|
3,4,9.4|
4,0,4.7|
4,1,2.5|
4,2,4.3|
4,3,4.4|
];
constraint_x8_x6=[
0,1,8.5|
0,2,0.69|
0,3,4.1|
0,4,1.4|
1,0,4|
1,2,8.6|
1,3,8.7|
1,4,8.8|
2,0,6.6|
2,1,7|
2,3,2.5|
2,4,8|
3,0,7.2|
3,1,1.5|
3,2,1.2|
3,4,6.1|
4,0,7.5|
4,1,9.4|
4,2,6.3|
4,3,5.1|
];
constraint_x8_x7=[
0,1,3.6|
0,2,6|
0,3,8.5|
0,4,3.2|
1,0,3.4|
1,2,8|
1,3,1.5|
1,4,4.8|
2,0,9.5|
2,1,8.3|
2,3,6.6|
2,4,5.1|
3,0,6|
3,1,6.3|
3,2,2.2|
3,4,1.5|
4,0,9.2|
4,1,5.8|
4,2,3.4|
4,3,2.1|
];
constraint_x9_x2=[
0,1,2.4|
0,2,2.5|
0,3,8.9|
0,4,0.32|
1,0,9.7|
1,2,0.86|
1,3,10|
1,4,6.9|
2,0,7.5|
2,1,1.3|
2,3,8.7|
2,4,2|
3,0,6.1|
3,1,5.9|
3,2,6.8|
3,4,1.3|
4,0,1.5|
4,1,9.5|
4,2,5.4|
4,3,3.7|
];
constraint_x9_x4=[
0,1,6.6|
0,2,6|
0,3,1.9|
0,4,4.6|
1,0,3.1|
1,2,0.9|
1,3,9.2|
1,4,2|
2,0,1.7|
2,1,2.3|
2,3,9.8|
2,4,2.7|
3,0,0.5|
3,1,3.6|
3,2,3|
3,4,5.5|
4,0,2.6|
4,1,1.3|
4,2,2.5|
4,3,6.6|
];
constraint_x9_x5=[
0,1,1.1|
0,2,1.7|
0,3,1.4|
0,4,8.3|
1,0,0.54|
1,2,5.5|
1,3,2.8|
1,4,9.9|
2,0,6.6|
2,1,3.2|
2,3,4.3|
2,4,5.9|
3,0,7.2|
3,1,0.3|
3,2,8.8|
3,4,1.9|
4,0,2.3|
4,1,4|
4,2,7.1|
4,3,1.6|
];
constraint_x9_x7=[
0,1,4.2|
0,2,2.9|
0,3,6.2|
0,4,1.4|
1,0,4.5|
1,2,1.8|
1,3,7.3|
1,4,8.4|
2,0,6|
2,1,5.6|
2,3,5.2|
2,4,3.2|
3,0,1.5|
3,1,5.9|
3,2,1.5|
3,4,7.4|
4,0,2.6|
4,1,6.7|
4,2,5.3|
4,3,2.7|
];
constraint_x10_x1=[
0,1,4.4|
0,2,1.4|
0,3,4.9|
0,4,1|
1,0,0.63|
1,2,8.7|
1,3,3.2|
1,4,0.95|
2,0,2.1|
2,1,4.5|
2,3,6.6|
2,4,9.3|
3,0,8.7|
3,1,6.1|
3,2,6.5|
3,4,3.8|
4,0,2.6|
4,1,7|
4,2,5.6|
4,3,3.1|
];
constraint_x10_x2=[
0,1,7.1|
0,2,9.5|
0,3,2.1|
0,4,4|
1,0,8.8|
1,2,0.19|
1,3,8.4|
1,4,8.1|
2,0,2.4|
2,1,0.23|
2,3,6.3|
2,4,1.3|
3,0,8.2|
3,1,1.5|
3,2,5|
3,4,1.9|
4,0,3.5|
4,1,8.3|
4,2,9.8|
4,3,8.1|
];
constraint_x10_x5=[
0,1,9.7|
0,2,3|
0,3,1.5|
0,4,5.6|
1,0,9|
1,2,8.2|
1,3,5.6|
1,4,5.6|
2,0,3.3|
2,1,6.4|
2,3,8.6|
2,4,9.1|
3,0,2.1|
3,1,7|
3,2,1.7|
3,4,7|
4,0,4.3|
4,1,0.94|
4,2,5.7|
4,3,9.2|
];
constraint_x10_x6=[
0,1,6|
0,2,4|
0,3,9.2|
0,4,7.7|
1,0,5.1|
1,2,1.4|
1,3,1.6|
1,4,9|
2,0,8.3|
2,1,2.3|
2,3,3.2|
2,4,3.7|
3,0,8.4|
3,1,7.5|
3,2,5|
3,4,7.2|
4,0,4.6|
4,1,9.8|
4,2,0.074|
4,3,2.4|
];
constraint_x10_x7=[
0,1,0.43|
0,2,9|
0,3,5.3|
0,4,0.38|
1,0,4.6|
1,2,4.2|
1,3,7.4|
1,4,3.3|
2,0,6.3|
2,1,7.7|
2,3,8.7|
2,4,0.063|
3,0,1.7|
3,1,3.4|
3,2,3|
3,4,3|
4,0,7.1|
4,1,8.1|
4,2,8.7|
4,3,8.6|
];
constraint_x10_x8=[
0,1,10|
0,2,9.3|
0,3,6.2|
0,4,1.2|
1,0,7.8|
1,2,7.9|
1,3,8.4|
1,4,3.6|
2,0,9.5|
2,1,6.8|
2,3,4.4|
2,4,3.1|
3,0,1.9|
3,1,8.5|
3,2,4.5|
3,4,9.9|
4,0,2.6|
4,1,5.1|
4,2,7.9|
4,3,5.5|
];
constraint_x11_x1=[
0,1,6|
0,2,6|
0,3,3.1|
0,4,8.8|
1,0,0.36|
1,2,4.4|
1,3,8.8|
1,4,4.1|
2,0,1.2|
2,1,3.8|
2,3,6|
2,4,10|
3,0,2.5|
3,1,4.5|
3,2,5.5|
3,4,3.8|
4,0,3|
4,1,3.7|
4,2,5.5|
4,3,0.04|
];
constraint_x11_x4=[
0,1,7.9|
0,2,4.8|
0,3,9.5|
0,4,0.47|
1,0,5.8|
1,2,8.5|
1,3,7.8|
1,4,1.8|
2,0,8.4|
2,1,1.7|
2,3,0.8|
2,4,1.7|
3,0,0.32|
3,1,5.9|
3,2,9|
3,4,0.3|
4,0,3.3|
4,1,3.6|
4,2,6.2|
4,3,9.9|
];
constraint_x11_x5=[
0,1,3.7|
0,2,5.3|
0,3,6.1|
0,4,1.6|
1,0,7.2|
1,2,1.9|
1,3,7.6|
1,4,7.1|
2,0,0.32|
2,1,1.6|
2,3,5.3|
2,4,5|
3,0,5.8|
3,1,5|
3,2,7.8|
3,4,6.1|
4,0,2.2|
4,1,6.9|
4,2,1.1|
4,3,3.6|
];
constraint_x11_x6=[
0,1,4.5|
0,2,2.6|
0,3,9.2|
0,4,4.3|
1,0,6.2|
1,2,0.99|
1,3,0.52|
1,4,5.9|
2,0,2.4|
2,1,8.2|
2,3,2.4|
2,4,3.9|
3,0,8.4|
3,1,7.7|
3,2,5.6|
3,4,2.3|
4,0,5.2|
4,1,3.7|
4,2,7.8|
4,3,0.2|
];
constraint_x11_x8=[
0,1,9.2|
0,2,0.87|
0,3,8|
0,4,0.004|
1,0,2|
1,2,7.9|
1,3,4.7|
1,4,3.7|
2,0,1.7|
2,1,1.9|
2,3,0.34|
2,4,1.7|
3,0,7.8|
3,1,0.12|
3,2,0.32|
3,4,3.2|
4,0,2.1|
4,1,5.9|
4,2,7.1|
4,3,3.3|
];
constraint_x12_x1=[
0,1,2|
0,2,8.9|
0,3,5.7|
0,4,1|
1,0,7.1|
1,2,6.5|
1,3,2.9|
1,4,5|
2,0,3.4|
2,1,6.7|
2,3,3.6|
2,4,0.27|
3,0,4.7|
3,1,5|
3,2,2|
3,4,7|
4,0,8.9|
4,1,3.7|
4,2,1.6|
4,3,2.5|
];
constraint_x12_x2=[
0,1,6.1|
0,2,1.5|
0,3,8.1|
0,4,8.2|
1,0,3.2|
1,2,4.2|
1,3,5.5|
1,4,0.7|
2,0,4.6|
2,1,3|
2,3,3.8|
2,4,4|
3,0,4.1|
3,1,3.5|
3,2,4.1|
3,4,6.1|
4,0,2.6|
4,1,1.8|
4,2,0.055|
4,3,5.4|
];
constraint_x12_x3=[
0,1,1.5|
0,2,6.3|
0,3,9.7|
0,4,1|
1,0,4.4|
1,2,2.1|
1,3,2.9|
1,4,0.87|
2,0,4.9|
2,1,3.6|
2,3,4.3|
2,4,0.63|
3,0,4|
3,1,9.8|
3,2,4.4|
3,4,3.8|
4,0,6.3|
4,1,7.9|
4,2,9.6|
4,3,3.1|
];
constraint_x12_x7=[
0,1,7.8|
0,2,6.4|
0,3,3.8|
0,4,7.8|
1,0,8.7|
1,2,2.2|
1,3,3.5|
1,4,2|
2,0,9|
2,1,8.2|
2,3,7.4|
2,4,8.6|
3,0,4.9|
3,1,8.1|
3,2,2.5|
3,4,9.5|
4,0,9.8|
4,1,7.4|
4,2,0.31|
4,3,3.6|
];
constraint_x12_x9=[
0,1,5.6|
0,2,7.5|
0,3,8.1|
0,4,0.71|
1,0,5.5|
1,2,7.3|
1,3,8.7|
1,4,8.3|
2,0,6.6|
2,1,4.9|
2,3,5|
2,4,6.5|
3,0,4.2|
3,1,2|
3,2,4|
3,4,0.75|
4,0,5.1|
4,1,0.87|
4,2,2.4|
4,3,2.7|
];
constraint_x12_x11=[
0,1,2.5|
0,2,7.5|
0,3,3.9|
0,4,1.5|
1,0,5.1|
1,2,0.13|
1,3,9.8|
1,4,6.7|
2,0,4.3|
2,1,0.71|
2,3,3.5|
2,4,7.7|
3,0,9.6|
3,1,1.4|
3,2,2.4|
3,4,5.3|
4,0,3.3|
4,1,1.4|
4,2,6.2|
4,3,7.2|
];
constraint_x13_x1=[
0,1,0.58|
0,2,1.8|
0,3,6.3|
0,4,2.4|
1,0,7.3|
1,2,3.3|
1,3,5.6|
1,4,5.9|
2,0,6.6|
2,1,8.9|
2,3,9.3|
2,4,0.2|
3,0,6.4|
3,1,5.5|
3,2,7.1|
3,4,7.4|
4,0,9.9|
4,1,4.8|
4,2,4.5|
4,3,7.5|
];
constraint_x13_x3=[
0,1,7.4|
0,2,8.4|
0,3,0.51|
0,4,3.8|
1,0,9.4|
1,2,7|
1,3,0.42|
1,4,3.3|
2,0,6.6|
2,1,7.3|
2,3,2.8|
2,4,8.5|
3,0,1.3|
3,1,7.5|
3,2,6.2|
3,4,0.76|
4,0,6.4|
4,1,9.7|
4,2,0.35|
4,3,0.44|
];
constraint_x13_x4=[
0,1,4.3|
0,2,7.8|
0,3,5.2|
0,4,2|
1,0,6.7|
1,2,7.7|
1,3,5.2|
1,4,0.22|
2,0,2.1|
2,1,7.6|
2,3,1|
2,4,9.1|
3,0,4|
3,1,9.4|
3,2,8.7|
3,4,8.9|
4,0,1.4|
4,1,3.9|
4,2,4.4|
4,3,8.6|
];
constraint_x13_x5=[
0,1,7|
0,2,3.4|
0,3,8.6|
0,4,6|
1,0,7.9|
1,2,6.1|
1,3,8|
1,4,5.6|
2,0,0.21|
2,1,3.6|
2,3,1|
2,4,5.9|
3,0,3.8|
3,1,3|
3,2,1.2|
3,4,6.4|
4,0,2.8|
4,1,8.8|
4,2,1.7|
4,3,1.6|
];
constraint_x13_x6=[
0,1,8.6|
0,2,9.4|
0,3,2.2|
0,4,5.8|
1,0,1.7|
1,2,3.7|
1,3,5.7|
1,4,8|
2,0,9.6|
2,1,2.8|
2,3,5|
2,4,4.8|
3,0,3.3|
3,1,7.8|
3,2,5.3|
3,4,9.8|
4,0,2.7|
4,1,9.8|
4,2,6.4|
4,3,1.3|
];
constraint_x13_x12=[
0,1,0.26|
0,2,2.4|
0,3,5.4|
0,4,8.3|
1,0,5.5|
1,2,8.2|
1,3,9.8|
1,4,5.3|
2,0,2.5|
2,1,1.8|
2,3,2.6|
2,4,2.3|
3,0,0.36|
3,1,7.9|
3,2,7.6|
3,4,2.9|
4,0,3.9|
4,1,3.1|
4,2,0.57|
4,3,1.1|
];
constraint_x14_x3=[
0,1,4.6|
0,2,7|
0,3,6.8|
0,4,0.92|
1,0,6.6|
1,2,7.2|
1,3,3.2|
1,4,1.8|
2,0,6.9|
2,1,7|
2,3,2.1|
2,4,4.8|
3,0,8.5|
3,1,0.62|
3,2,0.46|
3,4,3.1|
4,0,6.8|
4,1,2.8|
4,2,5.6|
4,3,8.4|
];
constraint_x14_x5=[
0,1,7.7|
0,2,5.7|
0,3,9.4|
0,4,3.9|
1,0,0.24|
1,2,0.037|
1,3,3.5|
1,4,1.3|
2,0,7.9|
2,1,7.7|
2,3,4.7|
2,4,0.31|
3,0,3.6|
3,1,9.4|
3,2,3.2|
3,4,4.4|
4,0,2.8|
4,1,5.2|
4,2,1|
4,3,0.47|
];
constraint_x14_x9=[
0,1,6.6|
0,2,6.2|
0,3,6.7|
0,4,2.6|
1,0,5.1|
1,2,1|
1,3,7.9|
1,4,5.9|
2,0,7|
2,1,9.8|
2,3,8.3|
2,4,4.2|
3,0,4.4|
3,1,4.4|
3,2,2.6|
3,4,9.9|
4,0,6.4|
4,1,2.6|
4,2,4.3|
4,3,3.1|
];
constraint_x14_x10=[
0,1,6|
0,2,4.9|
0,3,2.4|
0,4,8.4|
1,0,0.24|
1,2,9.2|
1,3,9.9|
1,4,8.3|
2,0,9.2|
2,1,7.8|
2,3,8.9|
2,4,2.4|
3,0,6.5|
3,1,8.4|
3,2,9.9|
3,4,1.1|
4,0,8.1|
4,1,0.61|
4,2,3.5|
4,3,2.6|
];
constraint_x15_x3=[
0,1,9.4|
0,2,9.2|
0,3,0.74|
0,4,3|
1,0,3|
1,2,2.4|
1,3,7|
1,4,9.4|
2,0,6.8|
2,1,0.62|
2,3,8.6|
2,4,5.2|
3,0,0.41|
3,1,2|
3,2,6.2|
3,4,9|
4,0,9.1|
4,1,1.3|
4,2,9.8|
4,3,4.7|
];
constraint_x15_x4=[
0,1,0.8|
0,2,6.6|
0,3,3.4|
0,4,0.022|
1,0,0.25|
1,2,0.59|
1,3,8.9|
1,4,3.5|
2,0,0.97|
2,1,8.2|
2,3,3.5|
2,4,6.3|
3,0,0.3|
3,1,1.1|
3,2,4.5|
3,4,1.5|
4,0,0.74|
4,1,3.5|
4,2,3.6|
4,3,8|
];
constraint_x15_x5=[
0,1,1.6|
0,2,9.5|
0,3,4.3|
0,4,5|
1,0,10|
1,2,1.1|
1,3,1.1|
1,4,7.6|
2,0,8.1|
2,1,9.8|
2,3,8.9|
2,4,6|
3,0,6.2|
3,1,2.4|
3,2,5.9|
3,4,8.9|
4,0,3|
4,1,5.9|
4,2,0.29|
4,3,0.6|
];
constraint_x15_x7=[
0,1,8.8|
0,2,0.97|
0,3,4.4|
0,4,7.4|
1,0,0.84|
1,2,1.7|
1,3,2.9|
1,4,2.3|
2,0,8.8|
2,1,9.2|
2,3,8|
2,4,1.9|
3,0,8.1|
3,1,7.2|
3,2,2.7|
3,4,3.8|
4,0,4.8|
4,1,0.86|
4,2,3.1|
4,3,1.3|
];
constraint_x15_x11=[
0,1,8.1|
0,2,6.7|
0,3,1.9|
0,4,3.5|
1,0,0.65|
1,2,8|
1,3,6.1|
1,4,5|
2,0,2|
2,1,1.5|
2,3,1.2|
2,4,7.5|
3,0,4.5|
3,1,6.3|
3,2,6.3|
3,4,9|
4,0,1.1|
4,1,0.81|
4,2,7.1|
4,3,7.8|
];
constraint_x1_y1=[
0,0,7.6|
0,1,1.8|
0,2,3.7|
0,3,3.6|
0,4,0.23|
1,0,5|
1,1,1.7|
1,2,3.6|
1,3,2.9|
1,4,0.93|
2,0,5.8|
2,1,4.2|
2,2,8.7|
2,3,3.1|
2,4,2.1|
3,0,2.7|
3,1,7.6|
3,2,6.7|
3,3,6.4|
3,4,4.8|
4,0,0.99|
4,1,2.9|
4,2,4.3|
4,3,8|
4,4,5.4|
];
constraint_x2_y2=[
0,0,7|
0,1,8.3|
0,2,0.64|
0,3,0.94|
0,4,6.1|
1,0,2.9|
1,1,3.7|
1,2,6.4|
1,3,2.7|
1,4,9.7|
2,0,7.8|
2,1,1|
2,2,9.9|
2,3,3.6|
2,4,6|
3,0,1.4|
3,1,8.1|
3,2,5.8|
3,3,7.1|
3,4,1.6|
4,0,9.5|
4,1,6|
4,2,2.5|
4,3,0.3|
4,4,7.2|
];
constraint_x3_y3=[
0,0,9.9|
0,1,5.3|
0,2,7.4|
0,3,1.2|
0,4,7.1|
1,0,1.9|
1,1,4.5|
1,2,8.4|
1,3,3.2|
1,4,1.1|
2,0,2.1|
2,1,7.9|
2,2,8.1|
2,3,1.5|
2,4,2|
3,0,3.5|
3,1,8.4|
3,2,0.063|
3,3,7.7|
3,4,0.79|
4,0,1.8|
4,1,2.2|
4,2,7.7|
4,3,2.1|
4,4,7.8|
];
initial_distribution_y1=[0.23,0.032,0.22,0.17,0.36];
initial_distribution_y2=[0.29,0.042,0.32,0.091,0.26];
initial_distribution_y3=[0.053,0.16,0.23,0.48,0.073];
transition_y1=[
0.26,0.15,0.24,0.28,0.067|
0.24,0.17,0.03,0.39,0.17|
0.32,0.17,0.18,0.058,0.28|
0.04,0.27,0.41,0.08,0.2|
0.26,0.17,0.15,0.23,0.2|
];
transition_y2=[
0.14,0.3,0.3,0.21,0.051|
0.2,0.27,0.16,0.23,0.14|
0.26,0.099,0.27,0.18,0.18|
0.2,0.09,0.32,0.24,0.14|
0.22,0.2,0.25,0.19,0.15|
];
transition_y3=[
0.31,0.16,0.15,0.23,0.16|
0.1,0.31,0.16,0.14,0.28|
0.065,0.1,0.24,0.43,0.17|
0.46,0.0095,0.31,0.16,0.061|
0.29,0.077,0.13,0.3,0.21|
];
